<?xml version = "1.0" standalone="yes"?>
<!-- This file has been generated by DOcplex version 2.23.222  -->
<CPLEXSolution version="1.0">
 <header
   problemName="CVRP"
   objectiveValue="24474.6"
  />
 <variables>
  <variable name="x_0_1" index="0" value="1.00000"/>
  <variable name="x_0_3" index="2" value="1.00000"/>
  <variable name="x_0_5" index="4" value="1.00000"/>
  <variable name="x_0_6" index="5" value="1.00000"/>
  <variable name="x_0_8" index="7" value="1.00000"/>
  <variable name="x_0_9" index="8" value="1.00000"/>
  <variable name="x_0_13" index="12" value="1.00000"/>
  <variable name="x_0_14" index="13" value="1.00000"/>
  <variable name="x_0_16" index="15" value="1.00000"/>
  <variable name="x_0_18" index="17" value="1.00000"/>
  <variable name="x_0_19" index="18" value="1.00000"/>
  <variable name="x_0_21" index="20" value="1.00000"/>
  <variable name="x_0_22" index="21" value="1.00000"/>
  <variable name="x_0_23" index="22" value="1.00000"/>
  <variable name="x_0_25" index="24" value="1.00000"/>
  <variable name="x_0_26" index="25" value="1.00000"/>
  <variable name="x_0_27" index="26" value="1.00000"/>
  <variable name="x_0_29" index="28" value="1.00000"/>
  <variable name="x_1_7" index="35" value="1.00000"/>
  <variable name="x_2_0" index="58" value="1.00000"/>
  <variable name="x_3_0" index="87" value="1.00000"/>
  <variable name="x_4_0" index="116" value="1.00000"/>
  <variable name="x_5_20" index="164" value="1.00000"/>
  <variable name="x_6_2" index="176" value="1.00000"/>
  <variable name="x_7_0" index="203" value="1.00000"/>
  <variable name="x_8_11" index="242" value="1.00000"/>
  <variable name="x_9_0" index="261" value="1.00000"/>
  <variable name="x_10_28" index="317" value="1.00000"/>
  <variable name="x_11_0" index="319" value="1.00000"/>
  <variable name="x_12_0" index="348" value="1.00000"/>
  <variable name="x_13_0" index="377" value="1.00000"/>
  <variable name="x_14_0" index="406" value="1.00000"/>
  <variable name="x_15_0" index="435" value="1.00000"/>
  <variable name="x_16_24" index="487" value="1.00000"/>
  <variable name="x_17_10" index="503" value="1.00000"/>
  <variable name="x_18_0" index="522" value="1.00000"/>
  <variable name="x_19_0" index="551" value="1.00000"/>
  <variable name="x_20_0" index="580" value="1.00000"/>
  <variable name="x_21_4" index="613" value="1.00000"/>
  <variable name="x_22_12" index="650" value="1.00000"/>
  <variable name="x_23_0" index="667" value="1.00000"/>
  <variable name="x_24_0" index="696" value="1.00000"/>
  <variable name="x_25_0" index="725" value="1.00000"/>
  <variable name="x_26_0" index="754" value="1.00000"/>
  <variable name="x_27_17" index="800" value="1.00000"/>
  <variable name="x_28_0" index="812" value="1.00000"/>
  <variable name="x_29_15" index="856" value="1.00000"/>
  <variable name="u_1" index="870" value="16.00000"/>
  <variable name="u_2" index="871" value="31.00000"/>
  <variable name="u_3" index="872" value="22.00000"/>
  <variable name="u_4" index="873" value="31.00000"/>
  <variable name="u_5" index="874" value="16.00000"/>
  <variable name="u_6" index="875" value="22.00000"/>
  <variable name="u_7" index="876" value="31.00000"/>
  <variable name="u_8" index="877" value="6.00000"/>
  <variable name="u_9" index="878" value="29.00000"/>
  <variable name="u_10" index="879" value="9.00000"/>
  <variable name="u_11" index="880" value="26.00000"/>
  <variable name="u_12" index="881" value="27.00000"/>
  <variable name="u_13" index="882" value="31.00000"/>
  <variable name="u_14" index="883" value="26.00000"/>
  <variable name="u_15" index="884" value="29.00000"/>
  <variable name="u_16" index="885" value="19.00000"/>
  <variable name="u_17" index="886" value="8.00000"/>
  <variable name="u_18" index="887" value="31.00000"/>
  <variable name="u_19" index="888" value="19.00000"/>
  <variable name="u_20" index="889" value="27.00000"/>
  <variable name="u_21" index="890" value="18.00000"/>
  <variable name="u_22" index="891" value="22.00000"/>
  <variable name="u_23" index="892" value="25.00000"/>
  <variable name="u_24" index="893" value="25.00000"/>
  <variable name="u_25" index="894" value="28.00000"/>
  <variable name="u_26" index="895" value="19.00000"/>
  <variable name="u_27" index="896" value="3.00000"/>
  <variable name="u_28" index="897" value="31.00000"/>
  <variable name="u_29" index="898" value="19.00000"/>
 </variables>
</CPLEXSolution>
